"file data/sdpa_6.dat-s generated by ncpol2sdpa"
405 = number of vars
25 = number of blocs
(28, 1, 1, 1, 1, 1, 1, 1, 1, 1, 1, 1, 1, 1, 1, 1, 1, 1, 1, 1, 1, 1, 1, 1, 1) = BlocStructure
{0, 0, -6.9844358476199035, -10.249505195199543, -6.592219730214703, -9.289600842593035, -6.1649260809953015, -6.054653460563951, 0, 0, 0, 0, 0, 0, 0, 0, 0, 0, 0, 0, 0, 0, 0, 0, 0, 0, 0, 0, 0, 0, 0, 0, 0, 0, 0, 0, 0, 0, 0, 0, 0, 0, 0, 0, 0, 0, 0, 0, 0, 0, 0, 0, 0, 0, 0, 0, 0, 0, 0, 0, 0, 0, 0, 0, 0, 0, 0, 0, 0, 0, 0, 0, 0, 0, 0, 0, 0, 0, 0, 0, 1.0000000000000002, 0, 0, 0, 0, 0, 0, 0, 0, 0, 0, 0, 0, 0, 0, 0, 0, 0, 0, 0, 0, 0, 0, 0, 0, 1.0, 0, 0, 0, 0, 0, 0, 0, 0, 0, 0, 0, 0, 0, 0, 0, 0, 0, 0, 0, 0, 0, 0, 0, 1.0, 0, 0, 0, 0, 0, 0, 0, 0, 0, 0, 0, 0, 0, 0, 0, 0, 0, 0, 0, 0, 0, 0, 0.9999999999999999, 0, 0, 0, 0, 0, 0, 0, 0, 0, 0, 0, 0, 0, 0, 0, 0, 0, 0, 0, 0, 0, 1.0, 0, 0, 0, 0, 0, 0, 0, 0, 0, 0, 0, 0, 0, 0, 0, 0, 0, 0, 0, 0, 1.0, 0, 0, 0, 0, 0, 0, 0, 0, 0, 0, 0, 0, 0, 0, 0, 0, 0, 0, 0, 0.0005, 0, 0, 0, 0, 0, 0, 0, 0, 0, 0, 0, 0, 0, 0, 0, 0, 0, 0, 0.0005, 0, 0, 0, 0, 0, 0, 0, 0, 0, 0, 0, 0, 0, 0, 0, 0, 0, 0.0005, 0, 0, 0, 0, 0, 0, 0, 0, 0, 0, 0, 0, 0, 0, 0, 0, 0.0005, 0, 0, 0, 0, 0, 0, 0, 0, 0, 0, 0, 0, 0, 0, 0, 0.0005, 0, 0, 0, 0, 0, 0, 0, 0, 0, 0, 0, 0, 0, 0, 0.0005, 0, 0, 0, 0, 0, 0, 0, 0, 0, 0, 0, 0, 0, 0, 0, 0, 0, 0, 0, 0, 0, 0, 0, 0, 0, 0, 0, 0, 0, 0, 0, 0, 0, 0, 0, 0, 0, 0, 0, 0, 0, 0, 0, 0, 0, 0, 0, 0, 0, 0, 0, 0, 0, 0, 0, 0, 0, 0, 0, 0, 0, 0, 0, 0, 0, 0, 0, 0, 0, 0, 0, 0, 0, 0, 0, 0, 0, 0, 0, 0, 0, 0, 0, 0.0001, 0, 0, 0, 0, 0, 0.0001, 0, 0, 0, 0, 0.0001, 0, 0, 0, 0.0001, 0, 0, 0.0001, 0, 0.0001}
0	1	1	1	-1.0
1	1	1	2	1.0
2	1	1	3	1.0
3	1	1	4	1.0
3	2	1	1	1.0
3	8	1	1	-1.0
4	1	1	5	1.0
4	3	1	1	1.0
4	9	1	1	-1.0
5	1	1	6	1.0
5	4	1	1	1.0
5	10	1	1	-1.0
6	1	1	7	1.0
6	5	1	1	1.0
6	11	1	1	-1.0
7	1	1	8	1.0
7	6	1	1	1.0
7	12	1	1	-1.0
8	1	1	9	1.0
8	7	1	1	1.0
8	13	1	1	-1.0
9	1	1	10	1.0
9	2	1	1	-1.0
9	8	1	1	1.0
10	1	1	11	1.0
10	3	1	1	-1.0
10	9	1	1	1.0
11	1	1	12	1.0
11	4	1	1	-1.0
11	10	1	1	1.0
12	1	1	13	1.0
12	5	1	1	-1.0
12	11	1	1	1.0
13	1	1	14	1.0
13	6	1	1	-1.0
13	12	1	1	1.0
14	1	1	15	1.0
14	7	1	1	-1.0
14	13	1	1	1.0
15	1	1	16	1.0
16	1	1	17	1.0
16	14	1	1	1.0
16	20	1	1	-1.0
17	1	1	18	1.0
17	15	1	1	1.0
17	21	1	1	-1.0
18	1	1	19	1.0
18	16	1	1	1.0
18	22	1	1	-1.0
19	1	1	20	1.0
19	17	1	1	1.0
19	23	1	1	-1.0
20	1	1	21	1.0
20	18	1	1	1.0
20	24	1	1	-1.0
21	1	1	22	1.0
21	19	1	1	1.0
21	25	1	1	-1.0
22	1	1	23	1.0
22	14	1	1	-1.0
22	20	1	1	1.0
23	1	1	24	1.0
23	15	1	1	-1.0
23	21	1	1	1.0
24	1	1	25	1.0
24	16	1	1	-1.0
24	22	1	1	1.0
25	1	1	26	1.0
25	17	1	1	-1.0
25	23	1	1	1.0
26	1	1	27	1.0
26	18	1	1	-1.0
26	24	1	1	1.0
27	1	1	28	1.0
27	19	1	1	-1.0
27	25	1	1	1.0
28	1	2	2	1.0
29	1	2	3	1.0
30	1	2	4	1.0
31	1	2	5	1.0
32	1	2	6	1.0
33	1	2	7	1.0
34	1	2	8	1.0
35	1	2	9	1.0
36	1	2	10	1.0
37	1	2	11	1.0
38	1	2	12	1.0
39	1	2	13	1.0
40	1	2	14	1.0
41	1	2	15	1.0
42	1	2	16	1.0
42	14	1	1	-1.0
42	20	1	1	1.0
43	1	2	17	1.0
43	15	1	1	-1.0
43	21	1	1	1.0
44	1	2	18	1.0
44	16	1	1	-1.0
44	22	1	1	1.0
45	1	2	19	1.0
45	17	1	1	-1.0
45	23	1	1	1.0
46	1	2	20	1.0
46	18	1	1	-1.0
46	24	1	1	1.0
47	1	2	21	1.0
47	19	1	1	-1.0
47	25	1	1	1.0
48	1	2	22	1.0
49	1	2	23	1.0
50	1	2	24	1.0
51	1	2	25	1.0
52	1	2	26	1.0
53	1	2	27	1.0
54	1	2	28	1.0
55	1	3	3	1.0
56	1	3	4	1.0
57	1	3	5	1.0
58	1	3	6	1.0
59	1	3	7	1.0
60	1	3	8	1.0
61	1	3	9	1.0
62	1	3	10	1.0
63	1	3	11	1.0
64	1	3	12	1.0
65	1	3	13	1.0
66	1	3	14	1.0
67	1	3	15	1.0
68	1	3	16	1.0
69	1	3	17	1.0
69	2	1	1	-1.0
69	8	1	1	1.0
70	1	3	18	1.0
70	3	1	1	-1.0
70	9	1	1	1.0
71	1	3	19	1.0
71	4	1	1	-1.0
71	10	1	1	1.0
72	1	3	20	1.0
72	5	1	1	-1.0
72	11	1	1	1.0
73	1	3	21	1.0
73	6	1	1	-1.0
73	12	1	1	1.0
74	1	3	22	1.0
74	7	1	1	-1.0
74	13	1	1	1.0
75	1	3	23	1.0
76	1	3	24	1.0
77	1	3	25	1.0
78	1	3	26	1.0
79	1	3	27	1.0
80	1	3	28	1.0
81	1	4	4	1.0
82	1	4	5	1.0
83	1	4	6	1.0
84	1	4	7	1.0
85	1	4	8	1.0
86	1	4	9	1.0
87	1	4	10	1.0
88	1	4	11	1.0
89	1	4	12	1.0
90	1	4	13	1.0
91	1	4	14	1.0
92	1	4	15	1.0
93	1	4	16	1.0
94	1	4	17	1.0
95	1	4	18	1.0
96	1	4	19	1.0
97	1	4	20	1.0
98	1	4	21	1.0
99	1	4	22	1.0
100	1	4	23	1.0
101	1	4	24	1.0
102	1	4	25	1.0
103	1	4	26	1.0
104	1	4	27	1.0
105	1	4	28	1.0
106	1	5	5	1.0
107	1	5	6	1.0
108	1	5	7	1.0
109	1	5	8	1.0
110	1	5	9	1.0
111	1	5	10	1.0
112	1	5	11	1.0
113	1	5	12	1.0
114	1	5	13	1.0
115	1	5	14	1.0
116	1	5	15	1.0
117	1	5	16	1.0
118	1	5	17	1.0
119	1	5	18	1.0
120	1	5	19	1.0
121	1	5	20	1.0
122	1	5	21	1.0
123	1	5	22	1.0
124	1	5	23	1.0
125	1	5	24	1.0
126	1	5	25	1.0
127	1	5	26	1.0
128	1	5	27	1.0
129	1	5	28	1.0
130	1	6	6	1.0
131	1	6	7	1.0
132	1	6	8	1.0
133	1	6	9	1.0
134	1	6	10	1.0
135	1	6	11	1.0
136	1	6	12	1.0
137	1	6	13	1.0
138	1	6	14	1.0
139	1	6	15	1.0
140	1	6	16	1.0
141	1	6	17	1.0
142	1	6	18	1.0
143	1	6	19	1.0
144	1	6	20	1.0
145	1	6	21	1.0
146	1	6	22	1.0
147	1	6	23	1.0
148	1	6	24	1.0
149	1	6	25	1.0
150	1	6	26	1.0
151	1	6	27	1.0
152	1	6	28	1.0
153	1	7	7	1.0
154	1	7	8	1.0
155	1	7	9	1.0
156	1	7	10	1.0
157	1	7	11	1.0
158	1	7	12	1.0
159	1	7	13	1.0
160	1	7	14	1.0
161	1	7	15	1.0
162	1	7	16	1.0
163	1	7	17	1.0
164	1	7	18	1.0
165	1	7	19	1.0
166	1	7	20	1.0
167	1	7	21	1.0
168	1	7	22	1.0
169	1	7	23	1.0
170	1	7	24	1.0
171	1	7	25	1.0
172	1	7	26	1.0
173	1	7	27	1.0
174	1	7	28	1.0
175	1	8	8	1.0
176	1	8	9	1.0
177	1	8	10	1.0
178	1	8	11	1.0
179	1	8	12	1.0
180	1	8	13	1.0
181	1	8	14	1.0
182	1	8	15	1.0
183	1	8	16	1.0
184	1	8	17	1.0
185	1	8	18	1.0
186	1	8	19	1.0
187	1	8	20	1.0
188	1	8	21	1.0
189	1	8	22	1.0
190	1	8	23	1.0
191	1	8	24	1.0
192	1	8	25	1.0
193	1	8	26	1.0
194	1	8	27	1.0
195	1	8	28	1.0
196	1	9	9	1.0
197	1	9	10	1.0
198	1	9	11	1.0
199	1	9	12	1.0
200	1	9	13	1.0
201	1	9	14	1.0
202	1	9	15	1.0
203	1	9	16	1.0
204	1	9	17	1.0
205	1	9	18	1.0
206	1	9	19	1.0
207	1	9	20	1.0
208	1	9	21	1.0
209	1	9	22	1.0
210	1	9	23	1.0
211	1	9	24	1.0
212	1	9	25	1.0
213	1	9	26	1.0
214	1	9	27	1.0
215	1	9	28	1.0
216	1	10	10	1.0
217	1	10	11	1.0
218	1	10	12	1.0
219	1	10	13	1.0
220	1	10	14	1.0
221	1	10	15	1.0
222	1	10	16	1.0
223	1	10	17	1.0
224	1	10	18	1.0
225	1	10	19	1.0
226	1	10	20	1.0
227	1	10	21	1.0
228	1	10	22	1.0
229	1	10	23	1.0
230	1	10	24	1.0
231	1	10	25	1.0
232	1	10	26	1.0
233	1	10	27	1.0
234	1	10	28	1.0
235	1	11	11	1.0
236	1	11	12	1.0
237	1	11	13	1.0
238	1	11	14	1.0
239	1	11	15	1.0
240	1	11	16	1.0
241	1	11	17	1.0
242	1	11	18	1.0
243	1	11	19	1.0
244	1	11	20	1.0
245	1	11	21	1.0
246	1	11	22	1.0
247	1	11	23	1.0
248	1	11	24	1.0
249	1	11	25	1.0
250	1	11	26	1.0
251	1	11	27	1.0
252	1	11	28	1.0
253	1	12	12	1.0
254	1	12	13	1.0
255	1	12	14	1.0
256	1	12	15	1.0
257	1	12	16	1.0
258	1	12	17	1.0
259	1	12	18	1.0
260	1	12	19	1.0
261	1	12	20	1.0
262	1	12	21	1.0
263	1	12	22	1.0
264	1	12	23	1.0
265	1	12	24	1.0
266	1	12	25	1.0
267	1	12	26	1.0
268	1	12	27	1.0
269	1	12	28	1.0
270	1	13	13	1.0
271	1	13	14	1.0
272	1	13	15	1.0
273	1	13	16	1.0
274	1	13	17	1.0
275	1	13	18	1.0
276	1	13	19	1.0
277	1	13	20	1.0
278	1	13	21	1.0
279	1	13	22	1.0
280	1	13	23	1.0
281	1	13	24	1.0
282	1	13	25	1.0
283	1	13	26	1.0
284	1	13	27	1.0
285	1	13	28	1.0
286	1	14	14	1.0
287	1	14	15	1.0
288	1	14	16	1.0
289	1	14	17	1.0
290	1	14	18	1.0
291	1	14	19	1.0
292	1	14	20	1.0
293	1	14	21	1.0
294	1	14	22	1.0
295	1	14	23	1.0
296	1	14	24	1.0
297	1	14	25	1.0
298	1	14	26	1.0
299	1	14	27	1.0
300	1	14	28	1.0
301	1	15	15	1.0
302	1	15	16	1.0
303	1	15	17	1.0
304	1	15	18	1.0
305	1	15	19	1.0
306	1	15	20	1.0
307	1	15	21	1.0
308	1	15	22	1.0
309	1	15	23	1.0
310	1	15	24	1.0
311	1	15	25	1.0
312	1	15	26	1.0
313	1	15	27	1.0
314	1	15	28	1.0
315	1	16	16	1.0
316	1	16	17	1.0
317	1	16	18	1.0
318	1	16	19	1.0
319	1	16	20	1.0
320	1	16	21	1.0
321	1	16	22	1.0
322	1	16	23	1.0
323	1	16	24	1.0
324	1	16	25	1.0
325	1	16	26	1.0
326	1	16	27	1.0
327	1	16	28	1.0
328	1	17	17	1.0
329	1	17	18	1.0
330	1	17	19	1.0
331	1	17	20	1.0
332	1	17	21	1.0
333	1	17	22	1.0
334	1	17	23	1.0
335	1	17	24	1.0
336	1	17	25	1.0
337	1	17	26	1.0
338	1	17	27	1.0
339	1	17	28	1.0
340	1	18	18	1.0
341	1	18	19	1.0
342	1	18	20	1.0
343	1	18	21	1.0
344	1	18	22	1.0
345	1	18	23	1.0
346	1	18	24	1.0
347	1	18	25	1.0
348	1	18	26	1.0
349	1	18	27	1.0
350	1	18	28	1.0
351	1	19	19	1.0
352	1	19	20	1.0
353	1	19	21	1.0
354	1	19	22	1.0
355	1	19	23	1.0
356	1	19	24	1.0
357	1	19	25	1.0
358	1	19	26	1.0
359	1	19	27	1.0
360	1	19	28	1.0
361	1	20	20	1.0
362	1	20	21	1.0
363	1	20	22	1.0
364	1	20	23	1.0
365	1	20	24	1.0
366	1	20	25	1.0
367	1	20	26	1.0
368	1	20	27	1.0
369	1	20	28	1.0
370	1	21	21	1.0
371	1	21	22	1.0
372	1	21	23	1.0
373	1	21	24	1.0
374	1	21	25	1.0
375	1	21	26	1.0
376	1	21	27	1.0
377	1	21	28	1.0
378	1	22	22	1.0
379	1	22	23	1.0
380	1	22	24	1.0
381	1	22	25	1.0
382	1	22	26	1.0
383	1	22	27	1.0
384	1	22	28	1.0
385	1	23	23	1.0
386	1	23	24	1.0
387	1	23	25	1.0
388	1	23	26	1.0
389	1	23	27	1.0
390	1	23	28	1.0
391	1	24	24	1.0
392	1	24	25	1.0
393	1	24	26	1.0
394	1	24	27	1.0
395	1	24	28	1.0
396	1	25	25	1.0
397	1	25	26	1.0
398	1	25	27	1.0
399	1	25	28	1.0
400	1	26	26	1.0
401	1	26	27	1.0
402	1	26	28	1.0
403	1	27	27	1.0
404	1	27	28	1.0
405	1	28	28	1.0
